p edges 200 379
e 1 5
e 1 35
e 1 49
e 2 71
e 2 128
e 3 30
e 3 85
e 3 127
e 3 168
e 3 175
e 4 54
e 4 69
e 4 129
e 4 133
e 4 168
e 5 37
e 5 53
e 5 75
e 5 97
e 6 102
e 6 126
e 6 129
e 6 145
e 6 159
e 7 40
e 7 83
e 7 183
e 7 194
e 8 79
e 8 92
e 9 83
e 10 44
e 10 49
e 10 191
e 11 20
e 12 50
e 12 98
e 13 16
e 13 26
e 13 53
e 13 75
e 13 194
e 14 32
e 14 144
e 15 35
e 15 48
e 15 76
e 15 86
e 15 93
e 16 22
e 16 23
e 16 73
e 16 177
e 17 24
e 17 56
e 17 74
e 17 95
e 17 194
e 18 37
e 18 79
e 18 122
e 18 136
e 18 146
e 18 197
e 19 104
e 19 112
e 19 169
e 20 25
e 20 65
e 20 74
e 20 105
e 20 127
e 20 141
e 21 39
e 21 50
e 21 60
e 21 85
e 21 92
e 21 163
e 21 173
e 21 194
e 22 93
e 23 41
e 23 156
e 23 157
e 23 195
e 24 32
e 24 107
e 24 133
e 24 171
e 25 57
e 26 62
e 26 63
e 26 188
e 27 140
e 27 162
e 27 184
e 28 66
e 28 82
e 28 92
e 28 142
e 28 184
e 29 50
e 29 148
e 30 63
e 30 112
e 30 157
e 30 171
e 31 45
e 31 62
e 31 139
e 32 60
e 32 139
e 32 157
e 32 177
e 33 42
e 33 52
e 33 84
e 34 70
e 34 159
e 35 89
e 35 120
e 36 165
e 36 198
e 37 61
e 37 110
e 37 118
e 37 139
e 38 73
e 38 192
e 39 52
e 39 94
e 40 62
e 40 161
e 41 57
e 41 72
e 41 92
e 41 93
e 41 136
e 41 146
e 41 166
e 41 170
e 41 196
e 42 169
e 43 44
e 43 108
e 43 137
e 43 151
e 44 49
e 44 66
e 44 74
e 44 78
e 45 57
e 45 87
e 45 103
e 45 115
e 45 146
e 45 159
e 46 47
e 46 89
e 46 104
e 46 124
e 46 131
e 46 158
e 47 110
e 47 168
e 47 190
e 48 85
e 48 88
e 48 122
e 48 137
e 48 164
e 48 167
e 48 171
e 48 193
e 49 110
e 50 139
e 50 177
e 51 62
e 52 53
e 52 145
e 52 199
e 53 67
e 53 193
e 54 169
e 55 67
e 55 91
e 55 129
e 55 175
e 56 111
e 57 66
e 57 155
e 57 161
e 57 188
e 58 91
e 58 197
e 59 182
e 59 183
e 59 198
e 60 163
e 60 199
e 61 95
e 61 184
e 62 127
e 63 72
e 64 120
e 64 130
e 64 131
e 64 182
e 64 197
e 67 159
e 67 162
e 67 197
e 68 128
e 68 148
e 68 192
e 68 193
e 69 134
e 69 172
e 70 85
e 70 88
e 70 134
e 70 160
e 70 184
e 71 125
e 71 138
e 71 155
e 71 165
e 71 196
e 72 128
e 73 138
e 73 170
e 73 181
e 73 193
e 74 76
e 74 129
e 74 139
e 74 187
e 75 165
e 76 109
e 76 110
e 76 191
e 77 109
e 77 113
e 78 143
e 78 152
e 79 113
e 79 135
e 80 152
e 81 89
e 81 126
e 81 200
e 82 100
e 82 133
e 82 173
e 82 195
e 83 146
e 83 147
e 83 155
e 84 116
e 85 92
e 86 160
e 86 185
e 87 101
e 87 107
e 88 98
e 89 135
e 89 199
e 90 104
e 92 99
e 92 106
e 92 133
e 92 167
e 93 130
e 93 157
e 94 118
e 94 119
e 94 134
e 94 157
e 95 122
e 96 139
e 96 145
e 96 171
e 97 194
e 98 102
e 98 133
e 99 137
e 99 173
e 99 195
e 100 187
e 101 118
e 101 154
e 102 106
e 102 160
e 103 107
e 103 140
e 104 108
e 104 119
e 104 136
e 104 146
e 104 174
e 104 188
e 105 131
e 105 137
e 107 161
e 107 177
e 108 136
e 109 194
e 111 180
e 113 142
e 114 146
e 114 181
e 114 196
e 115 151
e 115 166
e 116 165
e 116 169
e 116 195
e 117 149
e 118 158
e 119 127
e 119 166
e 119 198
e 120 167
e 121 149
e 122 161
e 122 192
e 122 195
e 123 199
e 124 145
e 124 171
e 124 182
e 125 155
e 126 137
e 126 147
e 127 144
e 127 194
e 128 146
e 129 130
e 129 137
e 130 163
e 131 159
e 131 170
e 131 182
e 133 155
e 133 183
e 136 184
e 136 195
e 136 199
e 137 163
e 139 178
e 139 184
e 140 172
e 141 158
e 141 193
e 146 184
e 146 185
e 148 185
e 150 177
e 150 178
e 151 184
e 152 163
e 153 181
e 154 189
e 154 193
e 157 162
e 157 197
e 162 195
e 167 186
e 169 182
e 170 186
e 173 174
e 173 183
e 174 175
e 175 182
e 180 198
e 184 185
e 186 190
e 191 197
